牛客/2019暑期多校训练营/数据/9_D_Knapsack Cryptosystem/1.in
36 5503630847453032
304189456000778 88682951740163 481555359481104 101084701919748 506358859840274 366198206898703 8660349213449 456994056161577 350539449832268 32804134287766 353654573430589 289006961393252 471100228674570 146108956432215 129944144731953 462994866415996 218167382451533 259394653887113 174578468876447 187973962997802 424211677661753 395042819939795 85770973568168 52126841759596 382051847680392 90833413718470 400709293833995 355480599849331 143668695956440 399041775769162 433200457118199 171119011239057 79318631059733 148962746107549 271093878539355 367601232261004
